\ This file was automatically generated by Zimpl
\ var x1 >= 0;
\ var x2 >= 0;
\ var x3 >= 0;
\ var x4 >= 0;
\ minimize Z :      50*x1 + 100*x2 + 51*x3 + 40*x4;
\ subto c1:      10*x1 + 1*x2 + 9*x3 + 0*x4 >= 5;
\ subto c2:     10*x1 + 10*x2 + 10*x3 + 10*x4 >= 50;
\ subto c3:     10*x1 + 11*x2 + 11*x3 + 20*x4 >= 10;
\Problem name: pp
Minimize
 Z:  +50 x1 +100 x2 +51 x3 +40 x4
Subject to
 c1_1:
  +9 x3 + x2 +10 x1 >= 5
 c2_1:
  +10 x4 +10 x3 +10 x2 +10 x1 >= 50
 c3_1:
  +20 x4 +11 x3 +11 x2 +10 x1 >= 10
Bounds
 0 <= x1 <= +inf
 0 <= x2 <= +inf
 0 <= x3 <= +inf
 0 <= x4 <= +inf
End
